Minimize
	value: tt

Subject to
tt + 1000 s_1_1 > 0.0
tt - t_1_1 - 1000.000000 s_1_1  + 0.000000 s_1_7  > -998.556400
tt + 1000 s_2_1 > 0.0
tt - t_2_1 - 1000.000000 s_2_1  + 0.000000 s_2_7  > -995.889744
tt + 1000 s_1_2 > 0.0
tt - t_1_2 - 1000.000000 s_1_2  + 0.000000 s_1_7  > -998.809069
tt + 1000 s_2_2 > 0.0
tt - t_2_2 - 1000.000000 s_2_2  + 0.000000 s_2_7  > -996.533442
tt + 1000 s_1_3 > 0.0
tt - t_1_3 - 1000.000000 s_1_3  + 0.000000 s_1_7  > -999.001422
tt + 1000 s_2_3 > 0.0
tt - t_2_3 - 1000.000000 s_2_3  + 0.000000 s_2_7  > -997.296558
tt + 1000 s_1_4 > 0.0
tt - t_1_4 - 1000.000000 s_1_4  + 0.000000 s_1_1  + 0.000000 s_1_2  > -999.866100
tt + 1000 s_2_4 > 0.0
tt - t_2_4 - 1000.000000 s_2_4  + 0.000000 s_2_1  + 0.000000 s_2_2  > -999.721718
tt + 1000 s_1_5 > 0.0
tt - t_1_5 - 1000.000000 s_1_5  + 0.000000 s_1_1  + 0.000000 s_1_7  > -999.611044
tt + 1000 s_2_5 > 0.0
tt - t_2_5 - 1000.000000 s_2_5  + 0.000000 s_2_1  + 0.000000 s_2_7  > -999.158189
tt + 1000 s_1_6 > 0.0
tt - t_1_6 - 1000.000000 s_1_6  + 0.000000 s_1_4  + 0.000000 s_1_3  + 0.000000 s_1_5  + 0.000000 s_1_2  > -999.784800
tt + 1000 s_2_6 > 0.0
tt - t_2_6 - 1000.000000 s_2_6  + 0.000000 s_2_4  + 0.000000 s_2_3  + 0.000000 s_2_5  + 0.000000 s_2_2  > -999.468850
tt + 1000 s_1_7 > 0.0
tt - t_1_7 - 1000.000000 s_1_7  > -999.082000
tt + 1000 s_2_7 > 0.0
tt - t_2_7 - 1000.000000 s_2_7  > -997.089934
s_1_1 + s_2_1 = 1
s_1_2 + s_2_2 = 1
s_1_3 + s_2_3 = 1
s_1_4 + s_2_4 = 1
s_1_5 + s_2_5 = 1
s_1_6 + s_2_6 = 1
s_1_7 + s_2_7 = 1
s_1_1 + s_1_2 + 1000 r_1_1_2 >= 2
- s_1_1 - s_1_2 - 1000 r_1_1_2 >= -1001
t_1_1 - t_1_2 - 1000.000000 u_1_1_2 - 0.000000 s_1_2  + 0.000000 s_1_7  + 2000.000000 r_1_1_2 > -998.809069
s_2_1 + s_2_2 + 1000 r_2_1_2 >= 2
- s_2_1 - s_2_2 - 1000 r_2_1_2 >= -1001
t_2_1 - t_2_2 - 1000.000000 u_2_1_2 - 0.000000 s_2_2  + 0.000000 s_2_7  + 2000.000000 r_2_1_2 > -996.533442
s_1_1 + s_1_3 + 1000 r_1_1_3 >= 2
- s_1_1 - s_1_3 - 1000 r_1_1_3 >= -1001
t_1_1 - t_1_3 - 1000.000000 u_1_1_3 - 0.000000 s_1_3  + 0.000000 s_1_7  + 2000.000000 r_1_1_3 > -999.001422
s_2_1 + s_2_3 + 1000 r_2_1_3 >= 2
- s_2_1 - s_2_3 - 1000 r_2_1_3 >= -1001
t_2_1 - t_2_3 - 1000.000000 u_2_1_3 - 0.000000 s_2_3  + 0.000000 s_2_7  + 2000.000000 r_2_1_3 > -997.296558
t_1_4 - t_1_1 - 1000.000000 s_1_1  + 0.000000 s_1_7  > -998.556400
t_1_4 - t_2_1 - 1000.000000 s_2_1  + 0.000000 s_2_7  > -995.889744
t_2_4 - t_1_1 - 1000.000000 s_1_1  + 0.000000 s_1_7  > -998.556400
t_2_4 - t_2_1 - 1000.000000 s_2_1  + 0.000000 s_2_7  > -995.889744
t_1_5 - t_1_1 - 1000.000000 s_1_1  + 0.000000 s_1_7  > -998.556400
t_1_5 - t_2_1 - 1000.000000 s_2_1  + 0.000000 s_2_7  > -995.889744
t_2_5 - t_1_1 - 1000.000000 s_1_1  + 0.000000 s_1_7  > -998.556400
t_2_5 - t_2_1 - 1000.000000 s_2_1  + 0.000000 s_2_7  > -995.889744
t_1_1 - t_1_7 - 1000.000000 s_1_7  > -999.082000
t_1_1 - t_2_7 - 1000.000000 s_2_7  > -997.089934
t_2_1 - t_1_7 - 1000.000000 s_1_7  > -999.082000
t_2_1 - t_2_7 - 1000.000000 s_2_7  > -997.089934
s_1_2 + s_1_1 + 1000 r_1_1_2 >= 2
- s_1_2 - s_1_1 - 1000 r_1_1_2 >= -1001
t_1_2 - t_1_1 + 1000.000000 u_1_1_2 - 0.000000 s_1_1  + 0.000000 s_1_7  + 2000.000000 r_1_1_2 > 1.443600
s_2_2 + s_2_1 + 1000 r_2_1_2 >= 2
- s_2_2 - s_2_1 - 1000 r_2_1_2 >= -1001
t_2_2 - t_2_1 + 1000.000000 u_2_1_2 - 0.000000 s_2_1  + 0.000000 s_2_7  + 2000.000000 r_2_1_2 > 4.110256
s_1_2 + s_1_3 + 1000 r_1_2_3 >= 2
- s_1_2 - s_1_3 - 1000 r_1_2_3 >= -1001
t_1_2 - t_1_3 - 1000.000000 u_1_2_3 - 0.000000 s_1_3  + 0.000000 s_1_7  + 2000.000000 r_1_2_3 > -999.001422
s_2_2 + s_2_3 + 1000 r_2_2_3 >= 2
- s_2_2 - s_2_3 - 1000 r_2_2_3 >= -1001
t_2_2 - t_2_3 - 1000.000000 u_2_2_3 - 0.000000 s_2_3  + 0.000000 s_2_7  + 2000.000000 r_2_2_3 > -997.296558
t_1_4 - t_1_2 - 1000.000000 s_1_2  + 0.000000 s_1_7  > -998.809069
t_1_4 - t_2_2 - 1000.000000 s_2_2  + 0.000000 s_2_7  > -996.533442
t_2_4 - t_1_2 - 1000.000000 s_1_2  + 0.000000 s_1_7  > -998.809069
t_2_4 - t_2_2 - 1000.000000 s_2_2  + 0.000000 s_2_7  > -996.533442
s_1_2 + s_1_5 + 1000 r_1_2_5 >= 2
- s_1_2 - s_1_5 - 1000 r_1_2_5 >= -1001
t_1_2 - t_1_5 - 1000.000000 u_1_2_5 - 0.000000 s_1_5  + 0.000000 s_1_1  + 0.000000 s_1_7  + 2000.000000 r_1_2_5 > -999.611044
s_2_2 + s_2_5 + 1000 r_2_2_5 >= 2
- s_2_2 - s_2_5 - 1000 r_2_2_5 >= -1001
t_2_2 - t_2_5 - 1000.000000 u_2_2_5 - 0.000000 s_2_5  + 0.000000 s_2_1  + 0.000000 s_2_7  + 2000.000000 r_2_2_5 > -999.158189
t_1_6 - t_1_2 - 1000.000000 s_1_2  + 0.000000 s_1_7  > -998.809069
t_1_6 - t_2_2 - 1000.000000 s_2_2  + 0.000000 s_2_7  > -996.533442
t_2_6 - t_1_2 - 1000.000000 s_1_2  + 0.000000 s_1_7  > -998.809069
t_2_6 - t_2_2 - 1000.000000 s_2_2  + 0.000000 s_2_7  > -996.533442
t_1_2 - t_1_7 - 1000.000000 s_1_7  > -999.082000
t_1_2 - t_2_7 - 1000.000000 s_2_7  > -997.089934
t_2_2 - t_1_7 - 1000.000000 s_1_7  > -999.082000
t_2_2 - t_2_7 - 1000.000000 s_2_7  > -997.089934
s_1_3 + s_1_1 + 1000 r_1_1_3 >= 2
- s_1_3 - s_1_1 - 1000 r_1_1_3 >= -1001
t_1_3 - t_1_1 + 1000.000000 u_1_1_3 - 0.000000 s_1_1  + 0.000000 s_1_7  + 2000.000000 r_1_1_3 > 1.443600
s_2_3 + s_2_1 + 1000 r_2_1_3 >= 2
- s_2_3 - s_2_1 - 1000 r_2_1_3 >= -1001
t_2_3 - t_2_1 + 1000.000000 u_2_1_3 - 0.000000 s_2_1  + 0.000000 s_2_7  + 2000.000000 r_2_1_3 > 4.110256
s_1_3 + s_1_2 + 1000 r_1_2_3 >= 2
- s_1_3 - s_1_2 - 1000 r_1_2_3 >= -1001
t_1_3 - t_1_2 + 1000.000000 u_1_2_3 - 0.000000 s_1_2  + 0.000000 s_1_7  + 2000.000000 r_1_2_3 > 1.190931
s_2_3 + s_2_2 + 1000 r_2_2_3 >= 2
- s_2_3 - s_2_2 - 1000 r_2_2_3 >= -1001
t_2_3 - t_2_2 + 1000.000000 u_2_2_3 - 0.000000 s_2_2  + 0.000000 s_2_7  + 2000.000000 r_2_2_3 > 3.466558
s_1_3 + s_1_4 + 1000 r_1_3_4 >= 2
- s_1_3 - s_1_4 - 1000 r_1_3_4 >= -1001
t_1_3 - t_1_4 - 1000.000000 u_1_3_4 - 0.000000 s_1_4  + 0.000000 s_1_1  + 0.000000 s_1_2  + 2000.000000 r_1_3_4 > -999.866100
s_2_3 + s_2_4 + 1000 r_2_3_4 >= 2
- s_2_3 - s_2_4 - 1000 r_2_3_4 >= -1001
t_2_3 - t_2_4 - 1000.000000 u_2_3_4 - 0.000000 s_2_4  + 0.000000 s_2_1  + 0.000000 s_2_2  + 2000.000000 r_2_3_4 > -999.721718
s_1_3 + s_1_5 + 1000 r_1_3_5 >= 2
- s_1_3 - s_1_5 - 1000 r_1_3_5 >= -1001
t_1_3 - t_1_5 - 1000.000000 u_1_3_5 - 0.000000 s_1_5  + 0.000000 s_1_1  + 0.000000 s_1_7  + 2000.000000 r_1_3_5 > -999.611044
s_2_3 + s_2_5 + 1000 r_2_3_5 >= 2
- s_2_3 - s_2_5 - 1000 r_2_3_5 >= -1001
t_2_3 - t_2_5 - 1000.000000 u_2_3_5 - 0.000000 s_2_5  + 0.000000 s_2_1  + 0.000000 s_2_7  + 2000.000000 r_2_3_5 > -999.158189
t_1_6 - t_1_3 - 1000.000000 s_1_3  + 0.000000 s_1_7  > -999.001422
t_1_6 - t_2_3 - 1000.000000 s_2_3  + 0.000000 s_2_7  > -997.296558
t_2_6 - t_1_3 - 1000.000000 s_1_3  + 0.000000 s_1_7  > -999.001422
t_2_6 - t_2_3 - 1000.000000 s_2_3  + 0.000000 s_2_7  > -997.296558
t_1_3 - t_1_7 - 1000.000000 s_1_7  > -999.082000
t_1_3 - t_2_7 - 1000.000000 s_2_7  > -997.089934
t_2_3 - t_1_7 - 1000.000000 s_1_7  > -999.082000
t_2_3 - t_2_7 - 1000.000000 s_2_7  > -997.089934
s_1_4 + s_1_3 + 1000 r_1_3_4 >= 2
- s_1_4 - s_1_3 - 1000 r_1_3_4 >= -1001
t_1_4 - t_1_3 + 1000.000000 u_1_3_4 - 0.000000 s_1_3  + 0.000000 s_1_7  + 2000.000000 r_1_3_4 > 0.998578
s_2_4 + s_2_3 + 1000 r_2_3_4 >= 2
- s_2_4 - s_2_3 - 1000 r_2_3_4 >= -1001
t_2_4 - t_2_3 + 1000.000000 u_2_3_4 - 0.000000 s_2_3  + 0.000000 s_2_7  + 2000.000000 r_2_3_4 > 2.703442
s_1_4 + s_1_5 + 1000 r_1_4_5 >= 2
- s_1_4 - s_1_5 - 1000 r_1_4_5 >= -1001
t_1_4 - t_1_5 - 1000.000000 u_1_4_5 - 0.000000 s_1_5  + 0.000000 s_1_1  + 0.000000 s_1_7  + 2000.000000 r_1_4_5 > -999.611044
s_2_4 + s_2_5 + 1000 r_2_4_5 >= 2
- s_2_4 - s_2_5 - 1000 r_2_4_5 >= -1001
t_2_4 - t_2_5 - 1000.000000 u_2_4_5 - 0.000000 s_2_5  + 0.000000 s_2_1  + 0.000000 s_2_7  + 2000.000000 r_2_4_5 > -999.158189
t_1_6 - t_1_4 - 1000.000000 s_1_4  + 0.000000 s_1_1  + 0.000000 s_1_2  > -999.866100
t_1_6 - t_2_4 - 1000.000000 s_2_4  + 0.000000 s_2_1  + 0.000000 s_2_2  > -999.721718
t_2_6 - t_1_4 - 1000.000000 s_1_4  + 0.000000 s_1_1  + 0.000000 s_1_2  > -999.866100
t_2_6 - t_2_4 - 1000.000000 s_2_4  + 0.000000 s_2_1  + 0.000000 s_2_2  > -999.721718
s_1_5 + s_1_2 + 1000 r_1_2_5 >= 2
- s_1_5 - s_1_2 - 1000 r_1_2_5 >= -1001
t_1_5 - t_1_2 + 1000.000000 u_1_2_5 - 0.000000 s_1_2  + 0.000000 s_1_7  + 2000.000000 r_1_2_5 > 1.190931
s_2_5 + s_2_2 + 1000 r_2_2_5 >= 2
- s_2_5 - s_2_2 - 1000 r_2_2_5 >= -1001
t_2_5 - t_2_2 + 1000.000000 u_2_2_5 - 0.000000 s_2_2  + 0.000000 s_2_7  + 2000.000000 r_2_2_5 > 3.466558
s_1_5 + s_1_3 + 1000 r_1_3_5 >= 2
- s_1_5 - s_1_3 - 1000 r_1_3_5 >= -1001
t_1_5 - t_1_3 + 1000.000000 u_1_3_5 - 0.000000 s_1_3  + 0.000000 s_1_7  + 2000.000000 r_1_3_5 > 0.998578
s_2_5 + s_2_3 + 1000 r_2_3_5 >= 2
- s_2_5 - s_2_3 - 1000 r_2_3_5 >= -1001
t_2_5 - t_2_3 + 1000.000000 u_2_3_5 - 0.000000 s_2_3  + 0.000000 s_2_7  + 2000.000000 r_2_3_5 > 2.703442
s_1_5 + s_1_4 + 1000 r_1_4_5 >= 2
- s_1_5 - s_1_4 - 1000 r_1_4_5 >= -1001
t_1_5 - t_1_4 + 1000.000000 u_1_4_5 - 0.000000 s_1_4  + 0.000000 s_1_1  + 0.000000 s_1_2  + 2000.000000 r_1_4_5 > 0.133900
s_2_5 + s_2_4 + 1000 r_2_4_5 >= 2
- s_2_5 - s_2_4 - 1000 r_2_4_5 >= -1001
t_2_5 - t_2_4 + 1000.000000 u_2_4_5 - 0.000000 s_2_4  + 0.000000 s_2_1  + 0.000000 s_2_2  + 2000.000000 r_2_4_5 > 0.278282
t_1_6 - t_1_5 - 1000.000000 s_1_5  + 0.000000 s_1_1  + 0.000000 s_1_7  > -999.611044
t_1_6 - t_2_5 - 1000.000000 s_2_5  + 0.000000 s_2_1  + 0.000000 s_2_7  > -999.158189
t_2_6 - t_1_5 - 1000.000000 s_1_5  + 0.000000 s_1_1  + 0.000000 s_1_7  > -999.611044
t_2_6 - t_2_5 - 1000.000000 s_2_5  + 0.000000 s_2_1  + 0.000000 s_2_7  > -999.158189
t_1_5 - t_1_7 - 1000.000000 s_1_7  > -999.082000
t_1_5 - t_2_7 - 1000.000000 s_2_7  > -997.089934
t_2_5 - t_1_7 - 1000.000000 s_1_7  > -999.082000
t_2_5 - t_2_7 - 1000.000000 s_2_7  > -997.089934
Binary
s_1_1
s_2_1
s_1_2
s_2_2
s_1_3
s_2_3
s_1_4
s_2_4
s_1_5
s_2_5
s_1_6
s_2_6
s_1_7
s_2_7
u_1_1_2
r_1_1_2
u_2_1_2
r_2_1_2
u_1_1_3
r_1_1_3
u_2_1_3
r_2_1_3
u_1_2_3
r_1_2_3
u_2_2_3
r_2_2_3
u_1_2_5
r_1_2_5
u_2_2_5
r_2_2_5
u_1_3_4
r_1_3_4
u_2_3_4
r_2_3_4
u_1_3_5
r_1_3_5
u_2_3_5
r_2_3_5
u_1_4_5
r_1_4_5
u_2_4_5
r_2_4_5

End
